(set-info :status unknown)
(declare-fun mem0 () (_ BitVec 8))
(declare-fun C () (_ BitVec 28))
(declare-fun |ana_WillNotOverflowSignedAdd(%x, trunc(C))| () (_ BitVec 1))
(declare-fun u_%sx () (_ BitVec 8))
(declare-fun %x () (_ BitVec 12))
(assert
 (let (($x11411 (= |ana_WillNotOverflowSignedAdd(%x, trunc(C))| (_ bv1 1))))
 (let (($x6975 (= (bvadd ((_ sign_extend 1) %x) ((_ sign_extend 1) ((_ extract 11 0) C))) ((_ sign_extend 1) (bvadd %x ((_ extract 11 0) C))))))
 (and (=> $x11411 $x6975) (= u_%sx (_ bv1 8)) $x11411 (= (bvand C (bvshl (_ bv268435455 28) (bvsub (_ bv12 28) (_ bv1 28)))) (_ bv0 28)) (and (distinct mem0 mem0) true)))))
(check-sat)
